Running for instance ./models/r208.txt
Generating routes...
Execution time:  0.115908166667  minutes
Academic license - for non-commercial use only
Warning: constraint name "Cliente esta na rota" has a space
Optimize a model with 26 rows, 5000 columns and 60518 nonzeros
Variable types: 0 continuous, 5000 integer (0 binary)
Coefficient statistics:
  Matrix range     [1e+00, 1e+00]
  Objective range  [6e+01, 7e+02]
  Bounds range     [1e+00, 1e+00]
  RHS range        [1e+00, 2e+01]
Found heuristic solution: objective 1183.8077751
Presolve removed 0 rows and 211 columns
Presolve time: 0.04s
Presolved: 26 rows, 4789 columns, 57807 nonzeros
Found heuristic solution: objective 1063.8952587
Variable types: 0 continuous, 4789 integer (4789 binary)

Root relaxation: objective 5.098731e+02, 113 iterations, 0.01 seconds

    Nodes    |    Current Node    |     Objective Bounds      |     Work
 Expl Unexpl |  Obj  Depth IntInf | Incumbent    BestBd   Gap | It/Node Time

     0     0  509.87309    0   25 1063.89526  509.87309  52.1%     -    0s
H    0     0                     623.7709777  509.87309  18.3%     -    0s
H    0     0                     582.7133073  509.87309  12.5%     -    0s
     0     0  511.18751    0   27  582.71331  511.18751  12.3%     -    0s
     0     0  511.18751    0   25  582.71331  511.18751  12.3%     -    0s
H    0     0                     563.9433828  511.18751  9.35%     -    0s
     0     0  511.18751    0   27  563.94338  511.18751  9.35%     -    0s
     0     0  511.18751    0   25  563.94338  511.18751  9.35%     -    0s
H    0     0                     560.1543170  511.18751  8.74%     -    0s
     0     0  512.08799    0   27  560.15432  512.08799  8.58%     -    0s
     0     0  537.45492    0   28  560.15432  537.45492  4.05%     -    0s
     0     0  537.45492    0   29  560.15432  537.45492  4.05%     -    0s
H    0     0                     545.4303065  537.45492  1.46%     -    0s
     0     0  538.19052    0   30  545.43031  538.19052  1.33%     -    0s
     0     0  538.19052    0   29  545.43031  538.19052  1.33%     -    0s
     0     0  544.41153    0   30  545.43031  544.41153  0.19%     -    0s
     0     0  544.41153    0   30  545.43031  544.41153  0.19%     -    0s
     0     0  544.41153    0   29  545.43031  544.41153  0.19%     -    0s
     0     0  544.41153    0   31  545.43031  544.41153  0.19%     -    0s
     0     0  544.41153    0   32  545.43031  544.41153  0.19%     -    0s
     0     0  544.41153    0   32  545.43031  544.41153  0.19%     -    0s
     0     0  544.95101    0   32  545.43031  544.95101  0.09%     -    0s
     0     0  544.95101    0   33  545.43031  544.95101  0.09%     -    0s
     0     0  544.95101    0   33  545.43031  544.95101  0.09%     -    0s
     0     0  544.95101    0   34  545.43031  544.95101  0.09%     -    0s
     0     0  544.95101    0   34  545.43031  544.95101  0.09%     -    0s
     0     0  544.95101    0   34  545.43031  544.95101  0.09%     -    0s
     0     0  544.95101    0   34  545.43031  544.95101  0.09%     -    0s
     0     0  544.95101    0   37  545.43031  544.95101  0.09%     -    0s
     0     0  544.95101    0   37  545.43031  544.95101  0.09%     -    0s
     0     0  544.95101    0   23  545.43031  544.95101  0.09%     -    0s
     0     0  544.95101    0   25  545.43031  544.95101  0.09%     -    0s
     0     0  544.95101    0   26  545.43031  544.95101  0.09%     -    0s
     0     0  544.95101    0   28  545.43031  544.95101  0.09%     -    0s
     0     0  544.95101    0   30  545.43031  544.95101  0.09%     -    0s
     0     0  544.95101    0   30  545.43031  544.95101  0.09%     -    0s
     0     0  544.95101    0   34  545.43031  544.95101  0.09%     -    0s
     0     0  544.95101    0   33  545.43031  544.95101  0.09%     -    0s
     0     0  544.95101    0   34  545.43031  544.95101  0.09%     -    0s
     0     0  544.95101    0   34  545.43031  544.95101  0.09%     -    0s
     0     0  544.95101    0   35  545.43031  544.95101  0.09%     -    0s
     0     0  544.95101    0   35  545.43031  544.95101  0.09%     -    0s
     0     0  544.95101    0   35  545.43031  544.95101  0.09%     -    0s
     0     0  544.95101    0   34  545.43031  544.95101  0.09%     -    0s
     0     0  544.95101    0   33  545.43031  544.95101  0.09%     -    0s
     0     0  544.95101    0   30  545.43031  544.95101  0.09%     -    0s
     0     0  544.95101    0   31  545.43031  544.95101  0.09%     -    0s
     0     0  544.95101    0   32  545.43031  544.95101  0.09%     -    0s
     0     0  544.95101    0   33  545.43031  544.95101  0.09%     -    0s
     0     0  544.95101    0   33  545.43031  544.95101  0.09%     -    0s
     0     0  544.95101    0   33  545.43031  544.95101  0.09%     -    0s
     0     0  544.95101    0   34  545.43031  544.95101  0.09%     -    0s
     0     0  544.95101    0   34  545.43031  544.95101  0.09%     -    0s
     0     0  544.95101    0   33  545.43031  544.95101  0.09%     -    0s
     0     0  544.95101    0   32  545.43031  544.95101  0.09%     -    0s
     0     0  544.95101    0   31  545.43031  544.95101  0.09%     -    0s
     0     0  544.95101    0   29  545.43031  544.95101  0.09%     -    0s
     0     0  544.95101    0   31  545.43031  544.95101  0.09%     -    0s
     0     0  544.95101    0   32  545.43031  544.95101  0.09%     -    0s
     0     0  544.95101    0   33  545.43031  544.95101  0.09%     -    0s
     0     0  544.95101    0   31  545.43031  544.95101  0.09%     -    0s
     0     0  544.95101    0   31  545.43031  544.95101  0.09%     -    0s
     0     0  544.95101    0   25  545.43031  544.95101  0.09%     -    0s

Cutting planes:
  Gomory: 3
  MIR: 13
  Zero half: 2

Explored 1 nodes (1066 simplex iterations) in 0.65 seconds
Thread count was 8 (of 8 available processors)

Solution count 8: 545.43 560.154 563.943 ... 1066.76

Optimal solution found (tolerance 1.00e-04)
Best objective 5.454303064701e+02, best bound 5.454303064701e+02, gap 0.0000%
23
18 6 17 5 8 11 20 9 10 7 3 1 19 21 12 24 25 4 22 2 13 16
Distance: 545.43030647
Execution time:  0.1330426  minutes
